db/data/20389240061777282213687146672942125249.z3.out
sat
-------------------
246.127052261
